NAME: instance_9
TYPE: TSP
COMMENT: 9-city problem
DIMENSION: 9
EDGE_WEIGHT_TYPE: EUC_2D
NODE_COORD_SECTION
0 811 71
1 566 655
2 425 642
3 373 775
4 127 656
5 401 781
6 122 291
7 875 937
8 293 162
EOF
